100
128
8
12
5
7
24
30
13
13
47
48
53
49
47
31
37
56
44
35
15
16
36
60
11
23
30
15
22
54
30
49
22
49
30
27
16
33
28
43
11
53
15
29
23
25
63
32
38
19
17
17
8
43
18
13
30
15
26
22
46
33
23
39
23
17
35
2
16
48
43
42
36
21
21
28
36
22
24
16
16
54
35
14
13
55
38
56
26
17
53
61
24
25
36
45
37
31
45
44
38
46